25 40
1 2 3
1 6 2
2 3 5
2 7 5
3 4 5
3 8 4
4 5 2
4 9 2
5 10 2
6 7 5
6 11 1
7 8 1
7 12 3
8 9 4
8 13 4
9 10 4
9 14 5
10 15 4
11 12 5
11 16 3
12 13 1
12 17 3
13 14 4
13 18 2
14 15 2
14 19 4
15 20 2
16 17 4
16 21 1
17 18 4
17 22 3
18 19 5
18 23 2
19 20 5
19 24 2
20 25 5
21 22 5
22 23 5
23 24 5
24 25 3
